1000
[150,151,152,153,154,155,156,157,158,159,161,162,163,164,165,167,168,169,170,171,172,173,174,175,176,177,179,180,181,182,183,184,185,186,187,189,190,191,192,193,194,195,196,197,198,199,200]
[2,3,1,4,2,1,1,3,5,2,4,5,4,2,2,2,2,3,4,2,5,1,1,2,2,3,4,5,1,4,3,2,3,2,3,1,3,4,5,3,1,2,1,1,1,2,1]
